p wcnf 160 189 190 
1 -116 -10 0 
1 33 -27 0 
1 -144 24 0 
1 -55 -82 0 
1 -141 -132 0 
1 86 116 0 
1 -45 -36 0 
1 -128 -74 0 
1 99 83 0 
1 88 -65 0 
1 109 70 0 
1 -13 61 0 
1 10 -60 0 
1 134 -113 0 
1 84 -95 0 
1 59 69 0 
1 -75 118 0 
1 12 40 0 
1 -114 26 0 
1 35 -24 0 
1 -117 152 0 
1 101 -129 0 
1 -10 105 0 
1 77 -66 0 
1 -1 26 0 
1 -114 90 0 
1 139 -69 0 
1 40 13 0 
1 -1 -67 0 
1 52 -126 0 
1 81 -149 0 
1 -159 -150 0 
1 42 67 0 
1 43 117 0 
1 8 -133 0 
1 -123 -2 0 
1 -30 -147 0 
1 37 152 0 
1 22 -69 0 
1 -159 120 0 
1 -131 -7 0 
1 94 -127 0 
1 95 81 0 
1 11 79 0 
1 106 -148 0 
1 2 -39 0 
1 77 4 0 
1 -43 -56 0 
1 -47 -89 0 
1 -90 -126 0 
1 54 114 0 
1 -143 -61 0 
1 -43 101 0 
1 -143 -133 0 
1 -120 111 0 
1 51 99 0 
1 -51 156 0 
1 118 72 0 
1 -145 -31 0 
1 98 -17 0 
1 110 -74 0 
1 18 -146 0 
1 -6 -53 0 
1 12 26 0 
1 89 36 0 
1 -136 153 0 
1 91 -81 0 
1 30 -150 0 
1 -120 -145 0 
1 70 123 0 
1 -50 89 0 
1 136 -73 0 
1 18 -134 0 
1 83 -144 0 
1 26 -15 0 
1 -112 -21 0 
1 64 -74 0 
1 -7 49 0 
1 -132 -15 0 
1 23 -81 0 
1 -59 -18 0 
1 -41 44 0 
1 -146 64 0 
1 -135 -93 0 
1 48 88 0 
1 26 -57 0 
1 82 -32 0 
1 54 19 0 
1 38 -117 0 
1 75 156 0 
1 -56 30 0 
1 32 -113 0 
1 86 -98 0 
1 7 -86 0 
1 131 -25 0 
1 -69 -30 0 
1 -54 -33 0 
1 -133 -56 0 
1 125 -86 0 
1 -122 115 0 
1 -29 113 0 
1 -60 119 0 
1 123 146 0 
1 14 -153 0 
1 -27 68 0 
1 -68 80 0 
1 -1 111 0 
1 123 -150 0 
1 -70 109 0 
1 87 -10 0 
1 -128 -99 0 
1 60 155 0 
1 71 102 0 
1 80 -102 0 
1 25 52 0 
1 -2 -41 0 
1 -158 57 0 
1 -60 -18 0 
1 114 -144 0 
1 85 95 0 
1 -88 -144 0 
1 -15 -152 0 
1 112 -11 0 
1 -36 141 0 
1 -10 138 0 
1 68 47 0 
1 -156 112 0 
1 27 -147 0 
1 57 58 0 
1 -130 -138 0 
1 78 37 0 
1 -139 -16 0 
1 -109 -22 0 
1 32 35 0 
1 -129 5 0 
1 -160 -72 0 
1 -11 45 0 
1 -52 -91 0 
1 -121 -18 0 
1 -130 -109 0 
1 -14 2 0 
1 -151 -41 0 
1 -76 -20 0 
1 16 92 0 
1 -75 -48 0 
1 -64 46 0 
1 77 -117 0 
1 -55 -96 0 
1 49 20 0 
1 60 -109 0 
1 107 -113 0 
1 139 -127 0 
1 82 -119 0 
1 31 -131 0 
1 -95 92 0 
1 -155 -70 0 
1 -70 -5 0 
1 46 -21 0 
1 142 44 0 
1 -16 -49 0 
1 131 90 0 
1 13 -27 0 
1 4 10 0 
1 -46 -111 0 
1 68 -27 0 
1 -134 84 0 
1 -91 -10 0 
1 -6 132 0 
1 143 -101 0 
1 65 -41 0 
1 -52 97 0 
1 -16 -128 0 
1 -131 -8 0 
1 -141 -21 0 
1 -9 -61 0 
1 139 -142 0 
1 135 -140 0 
1 121 -78 0 
1 -41 13 0 
1 -97 135 0 
1 -25 -99 0 
1 88 48 0 
1 16 60 0 
1 -106 35 0 
1 -38 111 0 
1 -10 141 0 
1 -89 32 0 
1 85 140 0 
1 -5 -18 0 
